151360.28,57.63,71.46
159051.15,54.84,68.01
159378.31,54.73,67.87
162049.96,53.83,66.75
195334.48,44.66,55.38
176014.97,49.56,61.45
185221.97,47.09,58.4
190236.55,45.85,56.86
173516.99,50.27,62.34
182264.46,47.86,59.35
155103.53,56.24,69.74
174211.72,50.07,62.09
179258.02,48.66,60.34
174749.15,49.92,61.9
179700.02,48.54,60.19
171740.22,50.79,62.98
183949.22,47.42,58.8
161734.61,53.93,66.88
177030.19,49.27,61.1
162974.44,53.52,66.37
